(set-info :smt-lib-version 2.6)
(set-logic UFNIA)
(set-info :source |
Generated by: Geoff Sutcliffe
Generated on: 2026-03-11
Generator: TPTPWorld
Application: Benchmarking automated theorem provers
Time limit: 120.0

These benchmarks are translations from the TPTP Library (Thousands of
Problems for Theorem Provers), see http://www.cs.miami.edu/~tptp/

The TPTP is maintained by Geoff Sutcliffe, and he contributed this
selection of benchmarks to SMT-LIB.  They were exported from the
v9.2.1 realease of TPTP.
|)
(set-info :category "industrial")
(set-info :status unknown)
; SZS status Success
(declare-sort $$unsorted 0)
(declare-sort tptp.uni 0)
(declare-sort tptp.ty 0)
(declare-fun tptp.sort1 (tptp.ty tptp.uni) Bool)
(declare-fun tptp.witness1 (tptp.ty) tptp.uni)
(assert (forall ((A tptp.ty)) (tptp.sort1 A (tptp.witness1 A))))
(declare-fun tptp.int () tptp.ty)
(declare-fun tptp.real () tptp.ty)
(declare-sort tptp.bool1 0)
(declare-fun tptp.bool () tptp.ty)
(declare-fun tptp.true1 () tptp.bool1)
(declare-fun tptp.false1 () tptp.bool1)
(declare-fun tptp.match_bool1 (tptp.ty tptp.bool1 tptp.uni tptp.uni) tptp.uni)
(assert (forall ((A tptp.ty) (X tptp.bool1) (X1 tptp.uni) (X2 tptp.uni)) (tptp.sort1 A (tptp.match_bool1 A X X1 X2))))
(assert (forall ((A tptp.ty) (Z tptp.uni) (Z1 tptp.uni)) (=> (tptp.sort1 A Z) (= (tptp.match_bool1 A tptp.true1 Z Z1) Z))))
(assert (forall ((A tptp.ty) (Z tptp.uni) (Z1 tptp.uni)) (=> (tptp.sort1 A Z1) (= (tptp.match_bool1 A tptp.false1 Z Z1) Z1))))
(assert (not (= tptp.true1 tptp.false1)))
(assert (forall ((U tptp.bool1)) (or (= U tptp.true1) (= U tptp.false1))))
(declare-sort tptp.tuple02 0)
(declare-fun tptp.tuple0 () tptp.ty)
(declare-fun tptp.tuple03 () tptp.tuple02)
(assert (forall ((U tptp.tuple02)) (= U tptp.tuple03)))
(declare-fun tptp.qtmark () tptp.ty)
(assert (forall ((X Int) (Y Int) (Z Int)) (=> (<= X Y) (=> (<= 0 Z) (<= (* X Z) (* Y Z))))))
(declare-fun tptp.map (tptp.ty tptp.ty) tptp.ty)
(declare-fun tptp.get (tptp.ty tptp.ty tptp.uni tptp.uni) tptp.uni)
(assert (forall ((A tptp.ty) (B tptp.ty) (X tptp.uni) (X1 tptp.uni)) (tptp.sort1 B (tptp.get B A X X1))))
(declare-fun tptp.set (tptp.ty tptp.ty tptp.uni tptp.uni tptp.uni) tptp.uni)
(assert (forall ((A tptp.ty) (B tptp.ty) (X tptp.uni) (X1 tptp.uni) (X2 tptp.uni)) (tptp.sort1 (tptp.map A B) (tptp.set B A X X1 X2))))
(assert (forall ((A tptp.ty) (B tptp.ty) (M tptp.uni) (A1 tptp.uni) (A2 tptp.uni) (B1 tptp.uni)) (=> (tptp.sort1 B B1) (=> (= A1 A2) (= (tptp.get B A (tptp.set B A M A1 B1) A2) B1)))))
(assert (forall ((A tptp.ty) (B tptp.ty) (M tptp.uni) (A1 tptp.uni) (A2 tptp.uni)) (=> (tptp.sort1 A A1) (=> (tptp.sort1 A A2) (forall ((B1 tptp.uni)) (=> (not (= A1 A2)) (= (tptp.get B A (tptp.set B A M A1 B1) A2) (tptp.get B A M A2))))))))
(declare-fun tptp.const (tptp.ty tptp.ty tptp.uni) tptp.uni)
(assert (forall ((A tptp.ty) (B tptp.ty) (X tptp.uni)) (tptp.sort1 (tptp.map A B) (tptp.const B A X))))
(assert (forall ((A tptp.ty) (B tptp.ty) (B1 tptp.uni) (A1 tptp.uni)) (=> (tptp.sort1 B B1) (= (tptp.get B A (tptp.const B A B1) A1) B1))))
(declare-fun tptp.is_index1 (Int) Bool)
(assert (forall ((I Int)) (= (tptp.is_index1 I) (and (<= 0 I) (< I 81)))))
(declare-sort tptp.map_int_int 0)
(declare-fun tptp.valid_values1 (tptp.map_int_int) Bool)
(declare-fun tptp.t2tb (tptp.map_int_int) tptp.uni)
(assert (forall ((X tptp.map_int_int)) (tptp.sort1 (tptp.map tptp.int tptp.int) (tptp.t2tb X))))
(declare-fun tptp.tb2t (tptp.uni) tptp.map_int_int)
(assert (forall ((I tptp.map_int_int)) (= (tptp.tb2t (tptp.t2tb I)) I)))
(assert (forall ((J tptp.uni)) (= (tptp.t2tb (tptp.tb2t J)) J)))
(declare-fun tptp.t2tb1 (Int) tptp.uni)
(assert (forall ((X Int)) (tptp.sort1 tptp.int (tptp.t2tb1 X))))
(declare-fun tptp.tb2t1 (tptp.uni) Int)
(assert (forall ((I Int)) (= (tptp.tb2t1 (tptp.t2tb1 I)) I)))
(assert (forall ((J tptp.uni)) (= (tptp.t2tb1 (tptp.tb2t1 J)) J)))
(assert (forall ((G tptp.map_int_int)) (= (tptp.valid_values1 G) (forall ((I Int)) (let ((_let_1 (tptp.tb2t1 (tptp.get tptp.int tptp.int (tptp.t2tb G) (tptp.t2tb1 I))))) (=> (tptp.is_index1 I) (and (<= 0 _let_1) (<= _let_1 9))))))))
(declare-fun tptp.grid_eq_sub1 (tptp.map_int_int tptp.map_int_int Int Int) Bool)
(assert (forall ((G1 tptp.map_int_int) (G2 tptp.map_int_int) (A Int) (B Int)) (= (tptp.grid_eq_sub1 G1 G2 A B) (forall ((J Int)) (let ((_let_1 (tptp.t2tb1 J))) (=> (and (<= A J) (< J B)) (= (tptp.tb2t1 (tptp.get tptp.int tptp.int (tptp.t2tb G1) _let_1)) (tptp.tb2t1 (tptp.get tptp.int tptp.int (tptp.t2tb G2) _let_1)))))))))
(assert (forall ((G1 tptp.map_int_int) (G2 tptp.map_int_int) (A Int) (B Int)) (=> (and (<= 0 A) (<= A 81) (<= 0 B) (<= B 81) (tptp.grid_eq_sub1 G1 G2 0 81)) (tptp.grid_eq_sub1 G1 G2 A B))))
(declare-fun tptp.array (tptp.ty) tptp.ty)
(declare-fun tptp.mk_array1 (tptp.ty Int tptp.uni) tptp.uni)
(assert (forall ((A tptp.ty) (X Int) (X1 tptp.uni)) (tptp.sort1 (tptp.array A) (tptp.mk_array1 A X X1))))
(declare-fun tptp.length1 (tptp.ty tptp.uni) Int)
(assert (forall ((A tptp.ty) (U Int) (U1 tptp.uni)) (= (tptp.length1 A (tptp.mk_array1 A U U1)) U)))
(declare-fun tptp.elts (tptp.ty tptp.uni) tptp.uni)
(assert (forall ((A tptp.ty) (X tptp.uni)) (tptp.sort1 (tptp.map tptp.int A) (tptp.elts A X))))
(assert (forall ((A tptp.ty) (U Int) (U1 tptp.uni)) (=> (tptp.sort1 (tptp.map tptp.int A) U1) (= (tptp.elts A (tptp.mk_array1 A U U1)) U1))))
(assert (forall ((A tptp.ty) (U tptp.uni)) (= U (tptp.mk_array1 A (tptp.length1 A U) (tptp.elts A U)))))
(declare-fun tptp.get2 (tptp.ty tptp.uni Int) tptp.uni)
(assert (forall ((A tptp.ty) (X tptp.uni) (X1 Int)) (tptp.sort1 A (tptp.get2 A X X1))))
(assert (forall ((A tptp.ty) (A1 tptp.uni) (I Int)) (= (tptp.get2 A A1 I) (tptp.get A tptp.int (tptp.elts A A1) (tptp.t2tb1 I)))))
(declare-fun tptp.set2 (tptp.ty tptp.uni Int tptp.uni) tptp.uni)
(assert (forall ((A tptp.ty) (X tptp.uni) (X1 Int) (X2 tptp.uni)) (tptp.sort1 (tptp.array A) (tptp.set2 A X X1 X2))))
(assert (forall ((A tptp.ty) (A1 tptp.uni) (I Int) (V tptp.uni)) (= (tptp.set2 A A1 I V) (tptp.mk_array1 A (tptp.length1 A A1) (tptp.set A tptp.int (tptp.elts A A1) (tptp.t2tb1 I) V)))))
(declare-fun tptp.make1 (tptp.ty Int tptp.uni) tptp.uni)
(assert (forall ((A tptp.ty) (X Int) (X1 tptp.uni)) (tptp.sort1 (tptp.array A) (tptp.make1 A X X1))))
(assert (forall ((A tptp.ty) (N Int) (V tptp.uni)) (= (tptp.make1 A N V) (tptp.mk_array1 A N (tptp.const A tptp.int V)))))
(declare-sort tptp.sudoku_chunks1 0)
(declare-fun tptp.sudoku_chunks () tptp.ty)
(declare-sort tptp.array_int 0)
(declare-fun tptp.mk_sudoku_chunks1 (tptp.array_int tptp.array_int tptp.array_int tptp.array_int tptp.array_int tptp.array_int) tptp.sudoku_chunks1)
(declare-fun tptp.column_start1 (tptp.sudoku_chunks1) tptp.array_int)
(assert (forall ((U tptp.array_int) (U1 tptp.array_int) (U2 tptp.array_int) (U3 tptp.array_int) (U4 tptp.array_int) (U5 tptp.array_int)) (= (tptp.column_start1 (tptp.mk_sudoku_chunks1 U U1 U2 U3 U4 U5)) U)))
(declare-fun tptp.column_offsets1 (tptp.sudoku_chunks1) tptp.array_int)
(assert (forall ((U tptp.array_int) (U1 tptp.array_int) (U2 tptp.array_int) (U3 tptp.array_int) (U4 tptp.array_int) (U5 tptp.array_int)) (= (tptp.column_offsets1 (tptp.mk_sudoku_chunks1 U U1 U2 U3 U4 U5)) U1)))
(declare-fun tptp.row_start1 (tptp.sudoku_chunks1) tptp.array_int)
(assert (forall ((U tptp.array_int) (U1 tptp.array_int) (U2 tptp.array_int) (U3 tptp.array_int) (U4 tptp.array_int) (U5 tptp.array_int)) (= (tptp.row_start1 (tptp.mk_sudoku_chunks1 U U1 U2 U3 U4 U5)) U2)))
(declare-fun tptp.row_offsets1 (tptp.sudoku_chunks1) tptp.array_int)
(assert (forall ((U tptp.array_int) (U1 tptp.array_int) (U2 tptp.array_int) (U3 tptp.array_int) (U4 tptp.array_int) (U5 tptp.array_int)) (= (tptp.row_offsets1 (tptp.mk_sudoku_chunks1 U U1 U2 U3 U4 U5)) U3)))
(declare-fun tptp.square_start1 (tptp.sudoku_chunks1) tptp.array_int)
(assert (forall ((U tptp.array_int) (U1 tptp.array_int) (U2 tptp.array_int) (U3 tptp.array_int) (U4 tptp.array_int) (U5 tptp.array_int)) (= (tptp.square_start1 (tptp.mk_sudoku_chunks1 U U1 U2 U3 U4 U5)) U4)))
(declare-fun tptp.square_offsets1 (tptp.sudoku_chunks1) tptp.array_int)
(assert (forall ((U tptp.array_int) (U1 tptp.array_int) (U2 tptp.array_int) (U3 tptp.array_int) (U4 tptp.array_int) (U5 tptp.array_int)) (= (tptp.square_offsets1 (tptp.mk_sudoku_chunks1 U U1 U2 U3 U4 U5)) U5)))
(assert (forall ((U tptp.sudoku_chunks1)) (= U (tptp.mk_sudoku_chunks1 (tptp.column_start1 U) (tptp.column_offsets1 U) (tptp.row_start1 U) (tptp.row_offsets1 U) (tptp.square_start1 U) (tptp.square_offsets1 U)))))
(declare-fun tptp.chunk_valid_indexes1 (tptp.array_int tptp.array_int) Bool)
(declare-fun tptp.t2tb2 (tptp.array_int) tptp.uni)
(assert (forall ((X tptp.array_int)) (tptp.sort1 (tptp.array tptp.int) (tptp.t2tb2 X))))
(declare-fun tptp.tb2t2 (tptp.uni) tptp.array_int)
(assert (forall ((I tptp.array_int)) (= (tptp.tb2t2 (tptp.t2tb2 I)) I)))
(assert (forall ((J tptp.uni)) (= (tptp.t2tb2 (tptp.tb2t2 J)) J)))
(assert (forall ((Start tptp.array_int) (Offsets tptp.array_int)) (= (tptp.chunk_valid_indexes1 Start Offsets) (and (= (tptp.length1 tptp.int (tptp.t2tb2 Start)) 81) (= (tptp.length1 tptp.int (tptp.t2tb2 Offsets)) 9) (forall ((I Int) (O Int)) (=> (and (tptp.is_index1 I) (<= 0 O) (< O 9)) (tptp.is_index1 (+ (tptp.tb2t1 (tptp.get2 tptp.int (tptp.t2tb2 Start) I)) (tptp.tb2t1 (tptp.get2 tptp.int (tptp.t2tb2 Offsets) O))))))))))
(declare-fun tptp.disjoint_chunks1 (tptp.array_int tptp.array_int) Bool)
(assert (forall ((Start tptp.array_int) (Offsets tptp.array_int)) (= (tptp.disjoint_chunks1 Start Offsets) (and (= (tptp.length1 tptp.int (tptp.t2tb2 Start)) 81) (= (tptp.length1 tptp.int (tptp.t2tb2 Offsets)) 9) (forall ((I1 Int) (I2 Int) (O Int)) (let ((_let_1 (tptp.t2tb2 Start))) (let ((_let_2 (tptp.tb2t1 (tptp.get2 tptp.int _let_1 I2)))) (=> (and (tptp.is_index1 I1) (tptp.is_index1 I2) (<= 0 O) (< O 9)) (=> (not (= (tptp.tb2t1 (tptp.get2 tptp.int _let_1 I1)) _let_2)) (not (= I1 (+ _let_2 (tptp.tb2t1 (tptp.get2 tptp.int (tptp.t2tb2 Offsets) O))))))))))))))
(declare-fun tptp.well_formed_sudoku1 (tptp.sudoku_chunks1) Bool)
(assert (forall ((S tptp.sudoku_chunks1)) (let ((_let_1 (tptp.square_offsets1 S))) (let ((_let_2 (tptp.square_start1 S))) (let ((_let_3 (tptp.row_offsets1 S))) (let ((_let_4 (tptp.row_start1 S))) (let ((_let_5 (tptp.column_offsets1 S))) (let ((_let_6 (tptp.column_start1 S))) (= (tptp.well_formed_sudoku1 S) (and (tptp.chunk_valid_indexes1 _let_6 _let_5) (tptp.chunk_valid_indexes1 _let_4 _let_3) (tptp.chunk_valid_indexes1 _let_2 _let_1) (tptp.disjoint_chunks1 _let_6 _let_5) (tptp.disjoint_chunks1 _let_4 _let_3) (tptp.disjoint_chunks1 _let_2 _let_1)))))))))))
(declare-fun tptp.valid_chunk1 (tptp.map_int_int Int tptp.array_int tptp.array_int) Bool)
(assert (forall ((G tptp.map_int_int) (I Int) (Start tptp.array_int) (Offsets tptp.array_int)) (= (tptp.valid_chunk1 G I Start Offsets) (forall ((O1 Int) (O2 Int)) (let ((_let_1 (tptp.t2tb2 Offsets))) (let ((_let_2 (tptp.tb2t1 (tptp.get2 tptp.int (tptp.t2tb2 Start) I)))) (let ((_let_3 (tptp.t2tb G))) (let ((_let_4 (tptp.tb2t1 (tptp.get tptp.int tptp.int _let_3 (tptp.t2tb1 (+ _let_2 (tptp.tb2t1 (tptp.get2 tptp.int _let_1 O2)))))))) (let ((_let_5 (tptp.tb2t1 (tptp.get tptp.int tptp.int _let_3 (tptp.t2tb1 (+ _let_2 (tptp.tb2t1 (tptp.get2 tptp.int _let_1 O1)))))))) (=> (and (<= 0 O1) (< O1 9) (<= 0 O2) (< O2 9) (not (= O1 O2))) (=> (and (<= 1 _let_5) (<= _let_5 9) (<= 1 _let_4) (<= _let_4 9)) (not (= _let_5 _let_4)))))))))))))
(declare-fun tptp.valid_column1 (tptp.sudoku_chunks1 tptp.map_int_int Int) Bool)
(assert (forall ((S tptp.sudoku_chunks1) (G tptp.map_int_int) (I Int)) (= (tptp.valid_column1 S G I) (tptp.valid_chunk1 G I (tptp.column_start1 S) (tptp.column_offsets1 S)))))
(declare-fun tptp.valid_row1 (tptp.sudoku_chunks1 tptp.map_int_int Int) Bool)
(assert (forall ((S tptp.sudoku_chunks1) (G tptp.map_int_int) (I Int)) (= (tptp.valid_row1 S G I) (tptp.valid_chunk1 G I (tptp.row_start1 S) (tptp.row_offsets1 S)))))
(declare-fun tptp.valid_square1 (tptp.sudoku_chunks1 tptp.map_int_int Int) Bool)
(assert (forall ((S tptp.sudoku_chunks1) (G tptp.map_int_int) (I Int)) (= (tptp.valid_square1 S G I) (tptp.valid_chunk1 G I (tptp.square_start1 S) (tptp.square_offsets1 S)))))
(declare-fun tptp.valid1 (tptp.sudoku_chunks1 tptp.map_int_int) Bool)
(assert (forall ((S tptp.sudoku_chunks1) (G tptp.map_int_int)) (= (tptp.valid1 S G) (forall ((I Int)) (=> (tptp.is_index1 I) (and (tptp.valid_column1 S G I) (tptp.valid_row1 S G I) (tptp.valid_square1 S G I)))))))
(declare-fun tptp.full1 (tptp.map_int_int) Bool)
(assert (forall ((G tptp.map_int_int)) (= (tptp.full1 G) (forall ((I Int)) (let ((_let_1 (tptp.tb2t1 (tptp.get tptp.int tptp.int (tptp.t2tb G) (tptp.t2tb1 I))))) (=> (tptp.is_index1 I) (and (<= 1 _let_1) (<= _let_1 9))))))))
(declare-fun tptp.included1 (tptp.map_int_int tptp.map_int_int) Bool)
(assert (forall ((G1 tptp.map_int_int) (G2 tptp.map_int_int)) (= (tptp.included1 G1 G2) (forall ((I Int)) (let ((_let_1 (tptp.t2tb1 I))) (let ((_let_2 (tptp.tb2t1 (tptp.get tptp.int tptp.int (tptp.t2tb G1) _let_1)))) (=> (and (tptp.is_index1 I) (<= 1 _let_2) (<= _let_2 9)) (= (tptp.tb2t1 (tptp.get tptp.int tptp.int (tptp.t2tb G2) _let_1)) _let_2))))))))
(assert (forall ((G tptp.map_int_int) (H tptp.map_int_int)) (=> (tptp.included1 G H) (forall ((I Int) (S tptp.array_int) (O tptp.array_int)) (=> (and (tptp.is_index1 I) (tptp.chunk_valid_indexes1 S O) (tptp.valid_chunk1 H I S O)) (tptp.valid_chunk1 G I S O))))))
(assert (forall ((S tptp.sudoku_chunks1) (G tptp.map_int_int) (H tptp.map_int_int)) (=> (and (tptp.well_formed_sudoku1 S) (tptp.included1 G H) (tptp.valid1 S H)) (tptp.valid1 S G))))
(declare-fun tptp.is_solution_for1 (tptp.sudoku_chunks1 tptp.map_int_int tptp.map_int_int) Bool)
(assert (forall ((S tptp.sudoku_chunks1) (Sol tptp.map_int_int) (Data tptp.map_int_int)) (= (tptp.is_solution_for1 S Sol Data) (and (tptp.included1 Data Sol) (tptp.full1 Sol) (tptp.valid1 S Sol)))))
(declare-fun tptp.valid_chunk_up_to1 (tptp.map_int_int Int tptp.array_int tptp.array_int Int) Bool)
(assert (forall ((G tptp.map_int_int) (I Int) (Start tptp.array_int) (Offsets tptp.array_int) (Off Int)) (= (tptp.valid_chunk_up_to1 G I Start Offsets Off) (forall ((O1 Int) (O2 Int)) (let ((_let_1 (tptp.t2tb2 Offsets))) (let ((_let_2 (tptp.tb2t1 (tptp.get2 tptp.int (tptp.t2tb2 Start) I)))) (let ((_let_3 (tptp.t2tb G))) (let ((_let_4 (tptp.tb2t1 (tptp.get tptp.int tptp.int _let_3 (tptp.t2tb1 (+ _let_2 (tptp.tb2t1 (tptp.get2 tptp.int _let_1 O2)))))))) (let ((_let_5 (tptp.tb2t1 (tptp.get tptp.int tptp.int _let_3 (tptp.t2tb1 (+ _let_2 (tptp.tb2t1 (tptp.get2 tptp.int _let_1 O1)))))))) (=> (and (<= 0 O1) (< O1 Off) (<= 0 O2) (< O2 Off) (not (= O1 O2))) (=> (and (<= 1 _let_5) (<= _let_5 9) (<= 1 _let_4) (<= _let_4 9)) (not (= _let_5 _let_4)))))))))))))
(declare-fun tptp.valid_up_to1 (tptp.sudoku_chunks1 tptp.map_int_int Int) Bool)
(assert (forall ((S tptp.sudoku_chunks1) (G tptp.map_int_int) (I Int)) (= (tptp.valid_up_to1 S G I) (forall ((J Int)) (=> (and (<= 0 J) (< J I)) (and (tptp.valid_column1 S G J) (tptp.valid_row1 S G J) (tptp.valid_square1 S G J)))))))
(declare-fun tptp.full_up_to1 (tptp.map_int_int Int) Bool)
(assert (forall ((G tptp.map_int_int) (I Int)) (= (tptp.full_up_to1 G I) (forall ((J Int)) (let ((_let_1 (tptp.tb2t1 (tptp.get tptp.int tptp.int (tptp.t2tb G) (tptp.t2tb1 J))))) (=> (and (<= 0 J) (< J I)) (and (<= 1 _let_1) (<= _let_1 9))))))))
(assert (forall ((G tptp.map_int_int) (I Int) (X Int)) (=> (and (tptp.is_index1 I) (tptp.full_up_to1 G I)) (=> (and (<= 1 X) (<= X 9)) (tptp.full_up_to1 (tptp.tb2t (tptp.set tptp.int tptp.int (tptp.t2tb G) (tptp.t2tb1 I) (tptp.t2tb1 X))) (+ I 1))))))
(assert (forall ((G1 tptp.map_int_int) (G2 tptp.map_int_int) (I Int)) (=> (and (<= 0 I) (<= I 81) (tptp.grid_eq_sub1 G1 G2 0 I) (tptp.full_up_to1 G1 I)) (tptp.full_up_to1 G2 I))))
(assert (forall ((G1 tptp.map_int_int) (G2 tptp.map_int_int) (I Int)) (=> (and (<= 0 I) (<= I 81) (tptp.grid_eq_sub1 G1 G2 0 81) (tptp.full_up_to1 G1 I)) (tptp.full_up_to1 G2 I))))
(assert (forall ((G tptp.map_int_int) (I1 Int) (I2 Int) (K Int) (Start tptp.array_int) (Offsets tptp.array_int)) (let ((_let_1 (tptp.t2tb2 Start))) (=> (tptp.disjoint_chunks1 Start Offsets) (=> (and (tptp.is_index1 I1) (tptp.is_index1 I2) (<= 1 K) (<= K 9)) (=> (and (not (= (tptp.tb2t1 (tptp.get2 tptp.int _let_1 I1)) (tptp.tb2t1 (tptp.get2 tptp.int _let_1 I2)))) (tptp.valid_chunk1 G I2 Start Offsets)) (tptp.valid_chunk1 (tptp.tb2t (tptp.set tptp.int tptp.int (tptp.t2tb G) (tptp.t2tb1 I1) (tptp.t2tb1 K))) I2 Start Offsets)))))))
(assert (forall ((G tptp.map_int_int) (I1 Int) (I2 Int) (K Int) (Start tptp.array_int) (Offsets tptp.array_int)) (let ((_let_1 (tptp.tb2t (tptp.set tptp.int tptp.int (tptp.t2tb G) (tptp.t2tb1 I1) (tptp.t2tb1 K))))) (let ((_let_2 (tptp.t2tb2 Start))) (=> (and (tptp.is_index1 I1) (tptp.is_index1 I2) (<= 1 K) (<= K 9)) (=> (and (= (tptp.tb2t1 (tptp.get2 tptp.int _let_2 I1)) (tptp.tb2t1 (tptp.get2 tptp.int _let_2 I2))) (tptp.valid_chunk1 _let_1 I1 Start Offsets)) (tptp.valid_chunk1 _let_1 I2 Start Offsets)))))))
(assert (forall ((S tptp.sudoku_chunks1) (G tptp.map_int_int) (I Int) (X Int)) (let ((_let_1 (tptp.tb2t (tptp.set tptp.int tptp.int (tptp.t2tb G) (tptp.t2tb1 I) (tptp.t2tb1 X))))) (=> (and (tptp.well_formed_sudoku1 S) (tptp.is_index1 I) (tptp.valid_up_to1 S G I) (<= 1 X) (<= X 9) (tptp.valid_column1 S _let_1 I) (tptp.valid_row1 S _let_1 I) (tptp.valid_square1 S _let_1 I)) (tptp.valid_up_to1 S _let_1 (+ I 1))))))
(assert (not (forall ((S Int) (S1 tptp.map_int_int) (S2 Int) (S3 tptp.map_int_int) (S4 Int) (S5 tptp.map_int_int) (S6 Int) (S7 tptp.map_int_int) (S8 Int) (S9 tptp.map_int_int) (S10 Int) (S11 tptp.map_int_int) (G Int) (G1 tptp.map_int_int) (I Int)) (let ((_let_1 (<= 0 I))) (let ((_let_2 (tptp.mk_sudoku_chunks1 (tptp.tb2t2 (tptp.mk_array1 tptp.int S (tptp.t2tb S1))) (tptp.tb2t2 (tptp.mk_array1 tptp.int S2 (tptp.t2tb S3))) (tptp.tb2t2 (tptp.mk_array1 tptp.int S4 (tptp.t2tb S5))) (tptp.tb2t2 (tptp.mk_array1 tptp.int S6 (tptp.t2tb S7))) (tptp.tb2t2 (tptp.mk_array1 tptp.int S8 (tptp.t2tb S9))) (tptp.tb2t2 (tptp.mk_array1 tptp.int S10 (tptp.t2tb S11)))))) (=> (and (<= 0 S) (<= 0 S2) (<= 0 S4) (<= 0 S6) (<= 0 S8) (<= 0 S10) (<= 0 G) (tptp.well_formed_sudoku1 _let_2) (= G 81) (tptp.valid_values1 G1) _let_1 (<= I 81) (tptp.valid_up_to1 _let_2 G1 I) (tptp.full_up_to1 G1 I)) (=> (not (= I 81)) (=> (and _let_1 (< I G)) (=> (not (not (= (tptp.tb2t1 (tptp.get tptp.int tptp.int (tptp.t2tb G1) (tptp.t2tb1 I))) 0))) (=> (<= 1 9) (forall ((G2 tptp.map_int_int) (K Int)) (=> (and (<= 1 K) (<= K 9)) (=> (and (tptp.grid_eq_sub1 G1 (tptp.tb2t (tptp.set tptp.int tptp.int (tptp.t2tb G2) (tptp.t2tb1 I) (tptp.t2tb1 0))) 0 81) (tptp.full_up_to1 G2 I) (forall ((Kqt Int)) (=> (and (<= 1 Kqt) (< Kqt K)) (forall ((H tptp.map_int_int)) (=> (and (tptp.included1 (tptp.tb2t (tptp.set tptp.int tptp.int (tptp.t2tb G1) (tptp.t2tb1 I) (tptp.t2tb1 Kqt))) H) (tptp.full1 H)) (not (tptp.valid1 (tptp.mk_sudoku_chunks1 (tptp.tb2t2 (tptp.mk_array1 tptp.int S (tptp.t2tb S1))) (tptp.tb2t2 (tptp.mk_array1 tptp.int S2 (tptp.t2tb S3))) (tptp.tb2t2 (tptp.mk_array1 tptp.int S4 (tptp.t2tb S5))) (tptp.tb2t2 (tptp.mk_array1 tptp.int S6 (tptp.t2tb S7))) (tptp.tb2t2 (tptp.mk_array1 tptp.int S8 (tptp.t2tb S9))) (tptp.tb2t2 (tptp.mk_array1 tptp.int S10 (tptp.t2tb S11)))) H))))))) (=> (and (<= 0 G) (<= 0 I) (< I G)) (forall ((G3 tptp.map_int_int)) (let ((_let_1 (tptp.t2tb1 K))) (let ((_let_2 (tptp.t2tb1 I))) (let ((_let_3 (tptp.tb2t2 (tptp.mk_array1 tptp.int S2 (tptp.t2tb S3))))) (let ((_let_4 (tptp.tb2t2 (tptp.mk_array1 tptp.int S (tptp.t2tb S1))))) (=> (and (<= 0 G) (= G3 (tptp.tb2t (tptp.set tptp.int tptp.int (tptp.t2tb G2) _let_2 _let_1)))) (=> (and (= G 81) (tptp.valid_values1 G3) (tptp.is_index1 I) (tptp.chunk_valid_indexes1 _let_4 _let_3)) (=> (not (tptp.valid_chunk1 G3 I _let_4 _let_3)) (not (tptp.valid1 (tptp.mk_sudoku_chunks1 _let_4 _let_3 (tptp.tb2t2 (tptp.mk_array1 tptp.int S4 (tptp.t2tb S5))) (tptp.tb2t2 (tptp.mk_array1 tptp.int S6 (tptp.t2tb S7))) (tptp.tb2t2 (tptp.mk_array1 tptp.int S8 (tptp.t2tb S9))) (tptp.tb2t2 (tptp.mk_array1 tptp.int S10 (tptp.t2tb S11)))) (tptp.tb2t (tptp.set tptp.int tptp.int (tptp.t2tb G1) _let_2 _let_1))))))))))))))))))))))))))
(check-sat)
(exit)
